p edge 75 555
e 1 7
e 1 14
e 1 22
e 1 23
e 1 28
e 1 30
e 1 41
e 1 55
e 1 56
e 1 59
e 1 63
e 1 68
e 1 73
e 1 74
e 1 75
e 2 13
e 2 16
e 2 26
e 2 28
e 2 29
e 2 30
e 2 36
e 2 39
e 2 46
e 2 50
e 2 52
e 2 56
e 2 57
e 3 8
e 3 13
e 3 14
e 3 16
e 3 24
e 3 40
e 3 42
e 3 48
e 3 50
e 3 54
e 3 61
e 3 63
e 4 6
e 4 13
e 4 16
e 4 20
e 4 38
e 4 39
e 4 55
e 4 58
e 4 69
e 4 70
e 4 71
e 5 16
e 5 17
e 5 21
e 5 22
e 5 24
e 5 30
e 5 43
e 5 44
e 5 52
e 5 55
e 5 57
e 5 64
e 5 67
e 6 10
e 6 12
e 6 18
e 6 42
e 6 43
e 6 51
e 6 57
e 6 59
e 6 62
e 6 65
e 6 67
e 6 75
e 7 10
e 7 12
e 7 14
e 7 16
e 7 18
e 7 19
e 7 21
e 7 28
e 7 29
e 7 32
e 7 34
e 7 41
e 7 44
e 7 48
e 7 51
e 7 56
e 7 58
e 7 63
e 7 75
e 8 14
e 8 17
e 8 20
e 8 22
e 8 27
e 8 33
e 8 41
e 8 45
e 8 49
e 8 50
e 8 51
e 8 60
e 8 61
e 8 64
e 9 13
e 9 19
e 9 22
e 9 25
e 9 29
e 9 46
e 9 49
e 9 52
e 9 63
e 9 64
e 9 67
e 9 73
e 9 75
e 10 26
e 10 33
e 10 35
e 10 50
e 10 60
e 10 63
e 10 65
e 10 67
e 10 70
e 10 71
e 11 15
e 11 18
e 11 22
e 11 23
e 11 27
e 11 31
e 11 35
e 11 47
e 11 54
e 11 55
e 11 59
e 12 15
e 12 21
e 12 22
e 12 31
e 12 40
e 12 43
e 12 44
e 12 50
e 12 54
e 12 75
e 13 14
e 13 17
e 13 19
e 13 28
e 13 36
e 13 39
e 13 45
e 13 46
e 13 51
e 13 58
e 13 59
e 13 60
e 13 65
e 13 66
e 13 67
e 13 70
e 13 72
e 13 74
e 14 15
e 14 25
e 14 39
e 14 41
e 14 48
e 14 49
e 14 51
e 14 68
e 14 69
e 15 16
e 15 17
e 15 20
e 15 24
e 15 29
e 15 31
e 15 40
e 15 51
e 15 57
e 15 66
e 15 75
e 16 29
e 16 30
e 16 31
e 16 33
e 16 45
e 16 47
e 16 50
e 16 52
e 16 54
e 16 58
e 16 59
e 16 60
e 16 64
e 16 68
e 16 69
e 17 19
e 17 28
e 17 38
e 17 40
e 17 48
e 17 57
e 17 59
e 17 70
e 18 19
e 18 25
e 18 33
e 18 37
e 18 45
e 18 46
e 18 52
e 19 22
e 19 27
e 19 40
e 19 42
e 19 43
e 19 48
e 19 52
e 19 53
e 19 58
e 19 59
e 19 68
e 19 74
e 20 22
e 20 29
e 20 31
e 20 34
e 20 47
e 20 49
e 20 52
e 20 55
e 20 56
e 20 57
e 20 64
e 20 69
e 20 70
e 20 73
e 21 24
e 21 26
e 21 27
e 21 29
e 21 36
e 21 40
e 21 41
e 21 50
e 21 56
e 21 57
e 21 59
e 21 61
e 21 73
e 22 27
e 22 30
e 22 31
e 22 35
e 22 50
e 22 55
e 22 60
e 22 66
e 22 72
e 22 75
e 23 28
e 23 34
e 23 38
e 23 51
e 23 56
e 23 61
e 23 64
e 23 67
e 23 69
e 23 74
e 24 32
e 24 42
e 24 46
e 24 49
e 24 50
e 24 59
e 24 69
e 24 73
e 24 75
e 25 26
e 25 27
e 25 34
e 25 35
e 25 41
e 25 49
e 25 57
e 25 58
e 25 67
e 26 31
e 26 37
e 26 42
e 26 65
e 26 75
e 27 29
e 27 30
e 27 39
e 27 41
e 27 54
e 27 55
e 27 56
e 27 57
e 27 61
e 27 62
e 27 67
e 27 69
e 27 71
e 27 74
e 27 75
e 28 43
e 28 53
e 28 62
e 28 72
e 28 74
e 29 34
e 29 43
e 29 44
e 29 49
e 29 50
e 29 52
e 29 64
e 29 68
e 29 69
e 29 71
e 29 74
e 30 31
e 30 33
e 30 34
e 30 40
e 30 44
e 30 47
e 30 62
e 30 68
e 31 36
e 31 38
e 31 46
e 31 51
e 31 57
e 31 61
e 31 63
e 31 69
e 31 75
e 32 40
e 32 41
e 32 42
e 32 50
e 32 51
e 32 52
e 32 53
e 32 57
e 32 64
e 32 70
e 32 71
e 32 74
e 33 35
e 33 36
e 33 41
e 33 42
e 33 43
e 33 44
e 33 45
e 33 52
e 33 57
e 33 63
e 33 72
e 33 74
e 33 75
e 34 39
e 34 46
e 34 52
e 34 55
e 34 56
e 34 57
e 34 61
e 34 65
e 34 68
e 35 37
e 35 47
e 35 49
e 35 58
e 35 59
e 35 61
e 36 57
e 36 60
e 36 63
e 36 65
e 36 66
e 36 70
e 36 72
e 36 74
e 37 38
e 37 48
e 37 57
e 37 62
e 37 65
e 37 66
e 37 68
e 37 69
e 37 70
e 38 39
e 38 40
e 38 42
e 38 43
e 38 44
e 38 47
e 38 49
e 38 55
e 38 56
e 38 57
e 38 62
e 38 65
e 39 42
e 39 43
e 39 50
e 39 54
e 39 63
e 39 69
e 40 42
e 40 51
e 40 53
e 40 56
e 40 72
e 40 73
e 41 50
e 41 63
e 41 68
e 41 70
e 41 71
e 41 74
e 41 75
e 42 46
e 42 47
e 42 51
e 42 55
e 42 63
e 42 66
e 42 72
e 42 73
e 43 51
e 43 52
e 43 58
e 43 59
e 43 60
e 43 64
e 43 65
e 43 69
e 44 46
e 44 53
e 44 61
e 44 62
e 44 73
e 44 75
e 45 46
e 45 49
e 45 51
e 45 52
e 45 60
e 45 73
e 46 70
e 46 74
e 47 49
e 47 59
e 47 71
e 47 72
e 48 50
e 48 53
e 48 56
e 48 57
e 48 63
e 48 71
e 49 63
e 49 65
e 49 71
e 49 73
e 50 54
e 50 56
e 50 64
e 50 71
e 50 72
e 51 56
e 51 57
e 51 65
e 51 67
e 51 70
e 52 60
e 52 63
e 52 69
e 52 71
e 53 61
e 53 63
e 53 75
e 54 55
e 54 60
e 54 64
e 54 65
e 54 72
e 54 73
e 55 61
e 55 68
e 55 69
e 55 70
e 55 72
e 55 74
e 56 57
e 56 69
e 56 72
e 56 74
e 56 75
e 57 60
e 57 70
e 58 63
e 58 66
e 58 68
e 58 75
e 59 61
e 59 64
e 59 68
e 59 72
e 59 74
e 60 66
e 60 67
e 60 70
e 60 72
e 61 63
e 61 66
e 61 67
e 61 69
e 62 70
e 62 73
e 62 74
e 63 66
e 63 68
e 63 72
e 64 65
e 64 69
e 64 72
e 65 69
e 65 74
e 66 73
e 67 71
e 67 72
e 67 73
e 69 72
e 70 73
e 71 75
e 72 73
